3003          0             3    3  
5             0             5    0  
3005          0             5    3  
2002          0             2    2  
2005          0             5    2  
100003        0             3    100
100002        0             2    100
0             0             0    0  
1002          0             2    1  
100           0             100  0  
2004          0             4    2  
4             0             4    0  
4005          0             5    4  
100100        0             100  100
4004          0             4    4  
2             0             2    0  
1004          0             4    1  
2003          0             3    2  
1             0             1    0  
1001          0             1    1  
1003          0             3    1  
5005          0             5    5  
100004        0             4    100
100005        0             5    100
3004          0             4    3  
100001        0             1    100
3             0             3    0  
1005          0             5    1  
